# Objective value = 1.9561715076053367e+03
x[0] 0
x[1] 0
x[2] 1
x[3] 1
x[4] 1
x[5] 0
x[6] 1
x[7] 0
x[8] 1
x[9] 1
x[10] 1
x[11] 0
x[12] 0
x[13] 1
x[14] 0
x[15] 0
x[16] 0
x[17] 0
x[18] 0
x[19] 0
x[20] 1
x[21] 0
x[22] 1
x[23] 1
x[24] 1
x[25] 0
x[26] 1
x[27] 0
x[28] 1
x[29] 0
x[30] 0
x[31] 0
x[32] 1
x[33] 0
x[34] 1
x[35] 0
x[36] 1
x[37] 0
x[38] 0
x[39] 1
x[40] 1
x[41] 0
x[42] 0
x[43] 1
x[44] 1
x[45] 0
x[46] 0
x[47] 0
x[48] 1
x[49] 1
x[50] 1
x[51] 1
x[52] 1
x[53] 1
x[54] 1
x[55] 0
x[56] 0
x[57] 1
x[58] 0
x[59] 0
x[60] 1
x[61] 1
x[62] 1
x[63] 0
x[64] 1
x[65] 0
x[66] 0
x[67] 0
x[68] 1
x[69] 0
x[70] 1
x[71] 1
x[72] 1
x[73] 1
x[74] 0
x[75] 0
x[76] 0
x[77] 1
x[78] 1
x[79] 0
x[80] 0
x[81] 0
x[82] 1
x[83] 1
x[84] 1
x[85] 1
x[86] 1
x[87] 0
x[88] 1
x[89] 0
x[90] 1
x[91] 0
x[92] 1
x[93] 1
x[94] 1
x[95] 1
x[96] 1
x[97] 1
x[98] 1
x[99] 0
x[100] 1
x[101] 0
x[102] 1
x[103] 1
x[104] 0
x[105] 0
x[106] 0
x[107] 0
x[108] 0
x[109] 0
x[110] 1
x[111] 1
x[112] 0
x[113] 1
x[114] 1
x[115] 1
x[116] 0
x[117] 1
x[118] 1
x[119] 0
x[120] 1
x[121] 1
x[122] 0
x[123] 1
x[124] 0
x[125] 1
x[126] 1
x[127] 1
x[128] 1
x[129] 0
x[130] 1
x[131] 1
x[132] 1
x[133] 0
x[134] 0
x[135] 0
x[136] 1
x[137] 0
x[138] 0
x[139] 0
x[140] 0
x[141] 0
x[142] 0
x[143] 0
x[144] 1
x[145] 0
x[146] 1
x[147] 1
x[148] 1
x[149] 1
x[150] 1
x[151] 0
x[152] 0
x[153] 0
x[154] 1
x[155] 1
x[156] 1
x[157] 1
x[158] 1
x[159] 0
x[160] 0
x[161] 1
x[162] 1
x[163] 1
x[164] 0
x[165] 1
x[166] 0
x[167] 1
x[168] 0
x[169] 0
x[170] 1
x[171] 1
x[172] 0
x[173] 0
x[174] 0
x[175] 0
x[176] 1
x[177] 1
x[178] 1
x[179] 1
x[180] 1
x[181] 0
x[182] 1
x[183] 0
x[184] 0
x[185] 1
x[186] 1
x[187] 0
x[188] 1
x[189] 1
x[190] 0
x[191] 0
x[192] 0
x[193] 1
x[194] 0
x[195] 1
x[196] 1
x[197] 1
x[198] 0
x[199] 0
x[200] 0
x[201] 1
x[202] 0
x[203] 0
x[204] 1
x[205] 0
x[206] 0
x[207] 1
x[208] 0
x[209] 0
x[210] 1
x[211] 1
x[212] 1
x[213] 0
x[214] 0
x[215] 1
x[216] 1
x[217] 0
x[218] 1
x[219] 0
x[220] 0
x[221] 1
x[222] 1
x[223] 1
x[224] 0
x[225] 0
x[226] 1
x[227] 0
x[228] 1
x[229] 1
x[230] 0
x[231] 1
x[232] 1
x[233] 1
x[234] 1
x[235] 1
x[236] 1
x[237] 0
x[238] 1
x[239] 1
x[240] 0
x[241] 1
x[242] 1
x[243] 1
x[244] 0
x[245] 1
x[246] 0
x[247] 0
x[248] 1
x[249] 0
x[250] 0
x[251] 1
x[252] 1
x[253] 1
x[254] 1
x[255] 0
x[256] 0
x[257] 0
x[258] 0
x[259] 1
x[260] 1
x[261] 1
x[262] 0
x[263] 1
x[264] 0
x[265] 0
x[266] 1
x[267] 0
x[268] 1
x[269] 1
x[270] 1
x[271] 1
x[272] 0
x[273] 0
x[274] 0
x[275] 1
x[276] 0
x[277] 1
x[278] 0
x[279] 0
x[280] 0
x[281] 1
x[282] 1
x[283] 0
x[284] 0
x[285] 1
x[286] 1
x[287] 1
x[288] 1
x[289] 0
x[290] 0
x[291] 0
x[292] 1
x[293] 0
x[294] 0
x[295] 1
x[296] 1
x[297] 1
x[298] 1
x[299] 0
x[300] 1
x[301] 1
x[302] 1
x[303] 1
x[304] 1
x[305] 1
x[306] 1
x[307] 0
x[308] 1
x[309] 0
x[310] 0
x[311] 0
x[312] 1
x[313] 1
x[314] 1
x[315] 1
x[316] 1
x[317] 0
x[318] 0
x[319] 0
x[320] 0
x[321] 1
x[322] 1
x[323] 1
x[324] 0
x[325] 1
x[326] 1
x[327] 1
x[328] 0
x[329] 0
x[330] 1
x[331] 1
x[332] 0
x[333] 0
x[334] 0
x[335] 1
x[336] 0
x[337] 1
x[338] 1
x[339] 1
x[340] 1
x[341] 1
x[342] 0
x[343] 1
x[344] 0
x[345] 1
x[346] 1
x[347] 0
x[348] 1
x[349] 1
x[350] 0
x[351] 0
x[352] 0
x[353] 1
x[354] 1
x[355] 1
x[356] 1
x[357] 0
x[358] 0
x[359] 1
x[360] 1
x[361] 1
x[362] 1
x[363] 1
x[364] 0
x[365] 0
x[366] 0
x[367] 1
x[368] 0
x[369] 0
x[370] 1
x[371] 1
x[372] 1
x[373] 0
x[374] 1
x[375] 0
x[376] 1
x[377] 0
x[378] 0
x[379] 0
x[380] 1
x[381] 1
x[382] 0
x[383] 0
x[384] 1
x[385] 0
x[386] 1
x[387] 1
x[388] 1
x[389] 0
x[390] 1
x[391] 0
x[392] 1
x[393] 1
x[394] 1
x[395] 1
x[396] 0
x[397] 1
x[398] 0
x[399] 1
x[400] 1
x[401] 1
x[402] 1
x[403] 1
x[404] 1
x[405] 0
x[406] 0
x[407] 0
x[408] 1
x[409] 0
x[410] 0
x[411] 0
x[412] 1
x[413] 0
x[414] 0
x[415] 1
x[416] 1
x[417] 0
x[418] 1
x[419] 1
x[420] 0
x[421] 0
x[422] 0
x[423] 0
x[424] 0
x[425] 1
x[426] 1
x[427] 1
x[428] 0
x[429] 0
x[430] 1
x[431] 1
x[432] 0
x[433] 1
x[434] 1
x[435] 0
x[436] 0
x[437] 1
x[438] 0
x[439] 1
x[440] 1
x[441] 1
x[442] 1
x[443] 1
x[444] 0
x[445] 1
x[446] 0
x[447] 0
x[448] 0
x[449] 0
x[450] 1
x[451] 0
x[452] 0
x[453] 1
x[454] 1
x[455] 1
x[456] 1
x[457] 1
x[458] 1
x[459] 1
x[460] 1
x[461] 1
x[462] 0
x[463] 1
x[464] 1
x[465] 0
x[466] 0
x[467] 0
x[468] 1
x[469] 0
x[470] 1
x[471] 1
x[472] 1
x[473] 0
x[474] 1
x[475] 1
x[476] 1
x[477] 1
x[478] 0
x[479] 1
x[480] 0
x[481] 1
x[482] 0
x[483] 1
x[484] 0
x[485] 0
x[486] 1
x[487] 1
x[488] 0
x[489] 0
x[490] 1
x[491] 1
x[492] 0
x[493] 0
x[494] 0
x[495] 0
x[496] 1
x[497] 0
x[498] 1
x[499] 1
x[500] 1
x[501] 1
x[502] 0
x[503] 1
x[504] 1
x[505] 1
x[506] 0
x[507] 1
x[508] 1
x[509] 0
x[510] 1
x[511] 0
x[512] 0
x[513] 1
x[514] 0
x[515] 0
x[516] 1
x[517] 1
x[518] 1
x[519] 0
x[520] 1
x[521] 1
x[522] 0
x[523] 1
x[524] 0
x[525] 0
x[526] 0
x[527] 1
x[528] 0
x[529] 1
x[530] 1
x[531] 1
x[532] 1
x[533] 1
x[534] 1
x[535] 1
x[536] 1
x[537] 1
x[538] 0
x[539] 1
x[540] 1
x[541] 1
x[542] 0
x[543] 1
x[544] 1
x[545] 1
x[546] 1
x[547] 1
x[548] 1
x[549] 0
x[550] 1
x[551] 1
x[552] 1
x[553] 0
x[554] 1
x[555] 0
x[556] 0
x[557] 1
x[558] 0
x[559] 1
x[560] 1
x[561] 1
x[562] 0
x[563] 0
x[564] 1
x[565] 0
x[566] 0
x[567] 1
x[568] 0
x[569] 1
x[570] 1
x[571] 1
x[572] 1
x[573] 1
x[574] 1
x[575] 0
x[576] 1
x[577] 0
x[578] 1
x[579] 1
x[580] 0
x[581] 0
x[582] 0
x[583] 1
x[584] 0
x[585] 0
x[586] 1
x[587] 1
x[588] 0
x[589] 0
x[590] 1
x[591] 1
x[592] 0
x[593] 0
x[594] 1
x[595] 1
x[596] 0
x[597] 1
x[598] 0
x[599] 0
x[600] 1
x[601] 0
x[602] 1
x[603] 1
x[604] 1
x[605] 1
x[606] 1
x[607] 1
x[608] 0
x[609] 1
x[610] 1
x[611] 0
x[612] 0
x[613] 0
x[614] 0
x[615] 1
x[616] 0
x[617] 0
x[618] 1
x[619] 1
x[620] 1
x[621] 1
x[622] 0
x[623] 1
x[624] 1
x[625] 0
x[626] 1
x[627] 1
x[628] 1
x[629] 1
x[630] 0
x[631] 0
x[632] 0
x[633] 0
x[634] 0
x[635] 1
x[636] 1
x[637] 1
x[638] 0
x[639] 1
x[640] 1
x[641] 0
x[642] 1
x[643] 1
x[644] 0
x[645] 0
x[646] 1
x[647] 0
x[648] 1
x[649] 1
x[650] 0
x[651] 0
x[652] 1
x[653] 1
x[654] 0
x[655] 0
x[656] 1
x[657] 1
x[658] 0
x[659] 1
x[660] 0
x[661] 0
x[662] 1
x[663] 1
x[664] 1
x[665] 1
x[666] 0
x[667] 1
x[668] 1
x[669] 0
x[670] 1
x[671] 1
x[672] 1
x[673] 0
x[674] 0
x[675] 0
x[676] 1
x[677] 1
x[678] 1
x[679] 1
x[680] 0
x[681] 1
x[682] 1
x[683] 1
x[684] 0
x[685] 0
x[686] 0
x[687] 1
x[688] 1
x[689] 1
x[690] 0
x[691] 0
x[692] 1
x[693] 0
x[694] 0
x[695] 0
x[696] 1
x[697] 0
x[698] 0
x[699] 0
x[700] 1
x[701] 1
x[702] 0
x[703] 1
x[704] 1
x[705] 0
x[706] 1
x[707] 0
x[708] 1
x[709] 1
x[710] 1
x[711] 0
x[712] 0
x[713] 1
x[714] 1
x[715] 0
x[716] 1
x[717] 0
x[718] 0
x[719] 0
x[720] 1
x[721] 0
x[722] 1
x[723] 0
x[724] 1
x[725] 0
x[726] 1
x[727] 1
x[728] 1
x[729] 1
x[730] 1
x[731] 1
x[732] 0
x[733] 0
x[734] 1
x[735] 0
x[736] 0
x[737] 1
x[738] 0
x[739] 1
x[740] 0
x[741] 1
x[742] 1
x[743] 1
x[744] 1
x[745] 1
x[746] 1
x[747] 0
x[748] 1
x[749] 1
x[750] 1
x[751] 0
x[752] 1
x[753] 0
x[754] 1
x[755] 0
x[756] 0
x[757] 0
x[758] 1
x[759] 0
x[760] 0
x[761] 1
x[762] 0
x[763] 0
x[764] 1
x[765] 0
x[766] 0
x[767] 0
x[768] 1
x[769] 1
x[770] 1
x[771] 1
x[772] 1
x[773] 0
x[774] 1
x[775] 0
x[776] 1
x[777] 0
x[778] 0
x[779] 0
x[780] 0
x[781] 1
x[782] 0
x[783] 0
x[784] 1
x[785] 1
x[786] 0
x[787] 1
x[788] 1
x[789] 0
x[790] 0
x[791] 1
x[792] 1
x[793] 1
x[794] 1
x[795] 1
x[796] 0
x[797] 1
x[798] 1
x[799] 0
x[800] 0
x[801] 1
x[802] 1
x[803] 1
x[804] 1
x[805] 1
x[806] 1
x[807] 0
x[808] 0
x[809] 0
x[810] 0
x[811] 0
x[812] 0
x[813] 0
x[814] 1
x[815] 1
x[816] 1
x[817] 1
x[818] 0
x[819] 1
x[820] 0
x[821] 1
x[822] 0
x[823] 1
x[824] 1
x[825] 0
x[826] 1
x[827] 0
x[828] 0
x[829] 0
x[830] 1
x[831] 1
x[832] 1
x[833] 1
x[834] 0
x[835] 1
x[836] 0
x[837] 0
x[838] 1
x[839] 0
x[840] 1
x[841] 0
x[842] 1
x[843] 0
x[844] 1
x[845] 0
x[846] 1
x[847] 0
x[848] 0
x[849] 1
x[850] 1
x[851] 0
x[852] 0
x[853] 1
x[854] 0
x[855] 0
x[856] 0
x[857] 0
x[858] 0
x[859] 0
x[860] 0
x[861] 0
x[862] 0
x[863] 0
x[864] 1
x[865] 1
x[866] 1
x[867] 0
x[868] 1
x[869] 1
x[870] 0
x[871] 0
x[872] 1
x[873] 1
x[874] 0
x[875] 1
x[876] 0
x[877] 0
x[878] 1
x[879] 1
x[880] 1
x[881] 1
x[882] 0
x[883] 0
x[884] 0
x[885] 1
x[886] 1
x[887] 1
x[888] 0
x[889] 0
x[890] 1
x[891] 0
x[892] 1
x[893] 0
x[894] 0
x[895] 1
x[896] 1
x[897] 0
x[898] 0
x[899] 1
x[900] 0
x[901] 1
x[902] 0
x[903] 1
x[904] 0
x[905] 1
x[906] 1
x[907] 1
x[908] 1
x[909] 1
x[910] 1
x[911] 1
x[912] 1
x[913] 1
x[914] 0
x[915] 0
x[916] 0
x[917] 1
x[918] 0
x[919] 1
x[920] 0
x[921] 1
x[922] 1
x[923] 0
x[924] 1
x[925] 1
x[926] 1
x[927] 1
x[928] 1
x[929] 1
x[930] 0
x[931] 1
x[932] 1
x[933] 1
x[934] 0
x[935] 1
x[936] 1
x[937] 1
x[938] 0
x[939] 0
x[940] 0
x[941] 1
x[942] 0
x[943] 0
x[944] 1
x[945] 1
x[946] 1
x[947] 0
x[948] 1
x[949] 0
x[950] 1
x[951] 1
x[952] 1
x[953] 0
x[954] 0
x[955] 1
x[956] 1
x[957] 1
x[958] 1
x[959] 1
x[960] 0
x[961] 1
x[962] 0
x[963] 0
x[964] 1
x[965] 1
x[966] 1
x[967] 1
x[968] 1
x[969] 0
x[970] 0
x[971] 0
x[972] 1
x[973] 1
x[974] 0
x[975] 1
x[976] 1
x[977] 1
x[978] 1
x[979] 1
x[980] 1
x[981] 1
x[982] 0
x[983] 0
x[984] 1
x[985] 0
x[986] 1
x[987] 1
x[988] 1
x[989] 0
x[990] 0
x[991] 0
x[992] 1
x[993] 1
x[994] 1
x[995] 1
x[996] 0
x[997] 1
x[998] 0
x[999] 1
